(set-info :smt-lib-version 2.6)
(set-logic LRA)
(set-info :source |
   Monniaux, David; Quantifier Elimination by Lazy Model Enumeration, CAV 2010
|)
(set-info :category "random")
; ./Mjollnir_examples/B5/formula_112.m
(set-info :status unsat)
(assert
 (forall ((|v17:0| Real) )(forall ((|v16:1| Real) )(forall ((|v15:2| Real) )(forall ((|v14:3| Real) )(forall ((|v13:4| Real) )(forall ((|v12:5| Real) )(exists ((|v11:6| Real) )(exists ((|v10:7| Real) )(exists ((|v9:8| Real) )(exists ((|v8:9| Real) )(exists ((|v7:10| Real) )(exists ((|v6:11| Real) )(forall ((|v5:12| Real) )(forall ((|v4:13| Real) )(forall ((|v3:14| Real) )(forall ((|v2:15| Real) )(forall ((|v1:16| Real) )(forall ((|v0:17| Real) )(let ((?x320 0))
(let ((?x594 (+ (+ (* (- 1) |v15:2|) (* 13 |v9:8|)) (* (- 19) |v6:11|))))
(let ((?x19 (- 16)))
(let ((?x80 (- 7)))
(let ((?x91 (* ?x80 |v4:13|)))
(let ((?x58 3))
(let ((?x59 (* ?x58 |v13:4|)))
(let ((?x589 (+ (+ (+ (* (- 1) |v12:5|) (* (- 6) |v5:12|)) ?x59) ?x91)))
(let ((?x24 (- 20)))
(let ((?x103 17))
(let ((?x104 (* ?x103 |v4:13|)))
(let ((?x581 (+ (+ (* 19 |v13:4|) (* 9 |v2:15|)) (* (- 5) |v12:5|))))
(let ((?x41 20))
(let ((?x494 (* ?x320 |v6:11|)))
(let ((?x577 (+ (+ (+ (* 12 |v10:7|) (* 9 |v15:2|)) ?x494) (* 18 |v13:4|))))
(let (($x599 (and (and (<= ?x577 ?x41) (<= (+ ?x581 ?x104) ?x24)) (and (<= ?x589 ?x19) (<= (+ ?x594 (* 10 |v7:10|)) ?x320)))))
(let ((?x193 (- 15)))
(let ((?x567 (+ (+ (* (- 9) |v17:0|) (* (- 4) |v1:16|)) (* 7 |v16:1|))))
(let ((?x561 (+ (+ (+ (* (- 8) |v8:9|) |v5:12|) (* 12 |v4:13|)) (* 10 |v16:1|))))
(let ((?x133 (- 14)))
(let ((?x159 8))
(let ((?x252 (* ?x159 |v12:5|)))
(let ((?x554 (+ (+ (* 9 |v2:15|) (* 19 |v16:1|)) (* 6 |v13:4|))))
(let (($x571 (or (<= (+ ?x554 ?x252) ?x133) (and (<= ?x561 ?x193) (<= (+ ?x567 ?x494) ?x193)))))
(let ((?x100 (- 10)))
(let ((?x545 (+ (+ (+ (* 16 |v3:14|) |v8:9|) (* (- 8) |v15:2|)) |v9:8|)))
(let ((?x152 14))
(let ((?x505 (* ?x152 |v2:15|)))
(let ((?x540 (+ (+ (+ (* 5 |v14:3|) (* ?x193 |v1:16|)) ?x505) (* 4 |v1:16|))))
(let ((?x534 (+ (+ (+ (* ?x41 |v1:16|) (* ?x152 |v12:5|)) (* (- 13) |v8:9|)) (* ?x193 |v6:11|))))
(let ((?x236 13))
(let ((?x525 (* ?x236 |v9:8|)))
(let ((?x526 (+ (+ (+ |v6:11| (* (- 12) |v2:15|)) (* (- 2) |v2:15|)) ?x525)))
(let (($x548 (or (and (<= ?x526 ?x19) (<= ?x534 ?x24)) (or (<= ?x540 ?x133) (<= ?x545 ?x100)))))
(let ((?x519 (+ (+ (+ (* ?x236 |v1:16|) |v15:2|) (* 2 |v5:12|)) (* ?x320 |v7:10|))))
(let ((?x511 (+ (+ (* (- 18) |v15:2|) (* 18 |v8:9|)) (* ?x320 |v17:0|))))
(let ((?x27 6))
(let ((?x504 (+ (+ (* (- 17) |v1:16|) (* 2 |v5:12|)) (* (- 13) |v12:5|))))
(let ((?x499 (+ (+ (+ (* 15 |v6:11|) ?x494) (* (- 5) |v7:10|)) (* 7 |v15:2|))))
(let (($x522 (or (or (<= ?x499 ?x19) (<= (+ ?x504 ?x505) ?x27)) (or (<= (+ ?x511 (* ?x193 |v17:0|)) ?x159) (<= ?x519 ?x41)))))
(let ((?x10 (- 12)))
(let ((?x147 (* ?x10 |v13:4|)))
(let ((?x487 (+ (+ (+ (* (- 5) |v14:3|) (* ?x320 |v10:7|)) (* ?x19 |v9:8|)) ?x147)))
(let ((?x175 (- 4)))
(let ((?x480 (+ (+ (+ (* ?x27 |v2:15|) (* ?x320 |v14:3|)) (* (- 6) |v6:11|)) (* 15 |v3:14|))))
(let ((?x70 16))
(let ((?x469 (+ (+ (* 19 |v14:3|) (* 7 |v12:5|)) (* (- 8) |v12:5|))))
(let ((?x203 5))
(let ((?x463 (+ (+ (+ (* ?x103 |v12:5|) (* ?x41 |v16:1|)) (* (- 6) |v14:3|)) (* (- 17) |v14:3|))))
(let (($x490 (or (or (<= ?x463 ?x203) (<= (+ ?x469 (* (- 17) |v5:12|)) ?x70)) (or (<= ?x480 ?x175) (<= ?x487 ?x41)))))
(let ((?x127 11))
(let ((?x453 (+ (+ (+ (* ?x236 |v7:10|) (* 18 |v1:16|)) (* ?x127 |v15:2|)) (* 10 |v17:0|))))
(let ((?x442 (+ (+ (* ?x41 |v3:14|) (* 10 |v12:5|)) (* (- 2) |v6:11|))))
(let ((?x313 (- 3)))
(let ((?x222 (* ?x127 |v17:0|)))
(let (($x437 (<= (+ (+ (+ (* ?x127 |v0:17|) (* ?x175 |v11:6|)) (* ?x320 |v15:2|)) ?x222) ?x313)))
(let ((?x163 15))
(let ((?x429 (+ (+ (+ (* (- 13) |v5:12|) (* ?x70 |v15:2|)) (* ?x313 |v17:0|)) (* (- 18) |v11:6|))))
(let (($x456 (or (or (<= ?x429 ?x163) $x437) (or (<= (+ ?x442 (* ?x127 |v11:6|)) 1) (<= ?x453 ?x127)))))
(let ((?x419 (+ (+ (+ (* ?x100 |v14:3|) |v17:0|) (* ?x58 |v17:0|)) (* 9 |v8:9|))))
(let ((?x49 (- 6)))
(let ((?x187 (* ?x49 |v11:6|)))
(let ((?x409 (+ (+ (+ (* 19 |v8:9|) (* ?x103 |v7:10|)) ?x187) (* ?x10 |v0:17|))))
(let ((?x400 (+ (+ (* (- 5) |v16:1|) (* ?x163 |v7:10|)) (* (- 18) |v12:5|))))
(let ((?x239 (- 5)))
(let ((?x111 (- 8)))
(let ((?x112 (* ?x111 |v15:2|)))
(let ((?x392 (+ (+ (* (- 13) |v15:2|) (* ?x203 |v14:3|)) (* 4 |v15:2|))))
(let ((?x81 (* ?x80 |v15:2|)))
(let ((?x386 (+ (+ (+ (* (- 18) |v16:1|) (* ?x58 |v11:6|)) (* ?x236 |v15:2|)) ?x81)))
(let (($x412 (and (or (<= ?x386 ?x133) (<= (+ ?x392 ?x112) ?x239)) (and (<= (+ ?x400 (* 12 |v16:1|)) ?x80) (<= ?x409 ?x58)))))
(let (($x602 (and (or (or $x412 (<= ?x419 (- 11))) (or $x456 $x490)) (or (and $x522 $x548) (and $x571 $x599)))))
(let ((?x372 (+ (+ (* ?x203 |v5:12|) (* 4 |v3:14|)) (* 7 |v1:16|))))
(let ((?x366 (+ (+ (+ (* ?x127 |v8:9|) (* ?x100 |v1:16|)) (* (- 13) |v14:3|)) (* ?x70 |v16:1|))))
(let ((?x168 2))
(let ((?x354 (+ (+ (* 12 |v12:5|) (* ?x193 |v2:15|)) (* (- 19) |v2:15|))))
(let ((?x349 4))
(let ((?x348 (+ (+ (+ (* ?x100 |v6:11|) (* ?x19 |v17:0|)) (* ?x10 |v7:10|)) (* ?x58 |v6:11|))))
(let (($x377 (or (or (<= ?x348 ?x349) (<= (+ ?x354 (* 19 |v7:10|)) ?x168)) (or (<= ?x366 ?x159) (<= (+ ?x372 (* ?x100 |v3:14|)) ?x313)))))
(let ((?x54 (- 17)))
(let ((?x63 12))
(let ((?x336 (* ?x63 |v12:5|)))
(let (($x338 (<= (+ (+ (+ (* ?x168 |v9:8|) (* ?x163 |v9:8|)) (* ?x175 |v0:17|)) ?x336) ?x54)))
(let ((?x14 (- 9)))
(let ((?x329 (+ (+ (+ (* ?x111 |v1:16|) (* ?x14 |v10:7|)) (* ?x175 |v5:12|)) (* ?x63 |v3:14|))))
(let ((?x319 (+ (+ (+ (* 18 |v3:14|) (* ?x313 |v12:5|)) (* ?x10 |v16:1|)) (* ?x54 |v17:0|))))
(let ((?x46 (- 18)))
(let ((?x308 (+ (+ (+ (* ?x10 |v14:3|) (* 7 |v3:14|)) (* ?x168 |v2:15|)) (* ?x236 |v4:13|))))
(let (($x378 (and (and (or (<= ?x308 ?x46) (<= ?x319 ?x320)) (or (<= ?x329 ?x14) $x338)) $x377)))
(let ((?x298 (+ (+ (+ (* ?x133 |v10:7|) (* ?x159 |v16:1|)) (* ?x193 |v1:16|)) (* ?x27 |v12:5|))))
(let ((?x290 (+ (+ (+ (* ?x14 |v2:15|) (* 18 |v12:5|)) (* ?x49 |v12:5|)) (* (- 19) |v11:6|))))
(let ((?x247 10))
(let ((?x276 (+ (+ (+ (* ?x247 |v12:5|) (* 9 |v13:4|)) (* ?x203 |v11:6|)) (* ?x58 |v5:12|))))
(let (($x284 (or (<= ?x276 ?x127) (<= (+ (+ (+ (* ?x100 |v10:7|) |v2:15|) (* ?x247 |v5:12|)) |v8:9|) ?x247))))
(let ((?x266 (+ (+ (+ (* ?x163 |v14:3|) (* ?x175 |v15:2|)) (* ?x168 |v11:6|)) (* ?x100 |v5:12|))))
(let ((?x258 (+ (+ (+ ?x252 (* ?x152 |v6:11|)) (* 18 |v16:1|)) (* 7 |v11:6|))))
(let ((?x32 7))
(let ((?x249 (+ (+ (+ (* ?x239 |v17:0|) (* (- 1) |v10:7|)) (* ?x19 |v1:16|)) (* ?x247 |v15:2|))))
(let ((?x25 (* ?x24 |v10:7|)))
(let (($x237 (<= (+ (+ (+ (* ?x58 |v10:7|) (* ?x27 |v15:2|)) (* ?x54 |v3:14|)) ?x25) ?x236)))
(let (($x302 (and (and (or $x237 (<= ?x249 ?x32)) (or (<= ?x258 ?x239) (<= ?x266 ?x111))) (or $x284 (or (<= ?x290 ?x236) (<= ?x298 ?x49))))))
(let ((?x223 (+ (+ (+ (* ?x175 |v17:0|) (* ?x159 |v7:10|)) (* (- 2) |v2:15|)) ?x222)))
(let ((?x215 (+ (+ (+ (* 18 |v14:3|) (* ?x49 |v9:8|)) (* ?x100 |v1:16|)) (* ?x10 |v1:16|))))
(let ((?x205 (+ (+ (+ (* ?x152 |v5:12|) (* ?x27 |v17:0|)) (* ?x14 |v15:2|)) (* ?x203 |v10:7|))))
(let (($x196 (<= (+ (+ (+ ?x187 (* ?x80 |v7:10|)) (* ?x54 |v1:16|)) (* ?x193 |v10:7|)) ?x152)))
(let ((?x182 (+ (+ (+ (* ?x175 |v6:11|) (* ?x103 |v15:2|)) (* ?x168 |v16:1|)) (* ?x103 |v16:1|))))
(let ((?x171 (* ?x19 |v1:16|)))
(let (($x173 (<= (+ (+ (+ (* ?x163 |v8:9|) (* ?x127 |v5:12|)) (* ?x168 |v2:15|)) ?x171) ?x46)))
(let ((?x158 (+ (+ (+ (* ?x152 |v4:13|) (* ?x14 |v2:15|)) (* ?x24 |v12:5|)) (* ?x41 |v12:5|))))
(let ((?x95 (- 2)))
(let (($x149 (<= (+ (+ (+ (* ?x127 |v12:5|) (* ?x127 |v2:15|)) (* ?x10 |v15:2|)) ?x147) ?x95)))
(let (($x227 (or (and (or $x149 (<= ?x158 ?x159)) (and $x173 (<= ?x182 ?x152))) (or (and $x196 (<= ?x205 ?x175)) (and (<= ?x215 ?x10) (<= ?x223 ?x127))))))
(let ((?x137 (+ (+ (+ (* ?x54 |v0:17|) (* ?x70 |v0:17|)) (* ?x133 |v12:5|)) (* ?x54 |v4:13|))))
(let ((?x126 (+ (+ (+ (* ?x24 |v12:5|) (* ?x14 |v6:11|)) (* (- 19) |v1:16|)) (* ?x32 |v14:3|))))
(let ((?x74 9))
(let ((?x36 18))
(let ((?x98 (* ?x36 |v8:9|)))
(let (($x115 (or (<= (+ (+ (+ (* ?x54 |v8:9|) ?x91) (* ?x95 |v12:5|)) ?x98) ?x100) (<= (+ (+ (+ ?x104 (* ?x63 |v1:16|)) (* ?x63 |v17:0|)) ?x112) ?x74))))
(let (($x85 (<= (+ (+ (+ (* ?x74 |v7:10|) (* ?x49 |v1:16|)) ?x81) (* ?x10 |v3:14|)) ?x49)))
(let ((?x67 19))
(let ((?x68 (* ?x67 |v13:4|)))
(let (($x86 (and (<= (+ (+ (+ (* ?x54 |v10:7|) ?x59) (* ?x63 |v4:13|)) ?x68) ?x70) $x85)))
(let ((?x47 (* ?x46 |v15:2|)))
(let (($x50 (<= (+ (+ (+ (* ?x32 |v0:17|) (* ?x36 |v6:11|)) (* ?x41 |v3:14|)) ?x47) ?x49)))
(let (($x28 (<= (+ (+ (+ (* ?x10 |v2:15|) (* ?x14 |v5:12|)) (* ?x19 |v16:1|)) ?x25) ?x27)))
(let (($x141 (or (or (or $x28 $x50) $x86) (and $x115 (and (<= ?x126 ?x127) (<= ?x137 ?x41))))))
(or (and (and $x141 $x227) (or $x302 $x378)) $x602))))))))))))))))))))))))))))))))))))))))))))))))))))))))))))))))))))))))))))))))))))))))))))))))))))))))))))))))))))))))))))))))
)
)
)
)
)
)
)
)
)
)
)
)
)
)
)
)
)
)
(check-sat)
(exit)

